c File: instances/14_0.30_1.col
c
c Description: Random graph of size 14 vertices and P(0.3) of edges between any two vertices.
p col 14 91
e 1 4
e 1 5
e 1 8
e 1 12
e 2 3
e 2 6
e 2 12
e 3 6
e 3 13
e 4 9
e 4 10
e 5 9
e 5 13
e 6 7
e 6 11
e 7 9
e 7 10
e 7 11
e 7 12
e 7 13
e 7 14
e 8 9
e 8 13
e 8 14
e 9 11
e 9 13
e 9 14
e 10 11
e 10 12
e 10 13
e 11 13
e 12 14